NAME : A-n32-k5
COMMENT : (Augerat et al, No of trucks: 4, Optimal value: 784)
TYPE : CVRP
DIMENSION : 5
EDGE_WEIGHT_TYPE : EUC_2D 
CAPACITY : 41
NODE_COORD_SECTION 
 1 20 20
 2 10 10
 3 11 11
 4 30 30
 5 31 31
DEMAND_SECTION 
1 0 
2 20 
3 21 
4 6 
5 19 
DEPOT_SECTION 
 1  
 -1  
EOF 
